p cnf 200 1110
-101 77 0
-101 -54 0
-101 24 0
-101 -79 0
-101 35 0
-101 -72 0
-101 87 0
-101 14 0
-101 -56 0
-101 34 0
101 -77 54 -24 79 -35 72 -87 -14 56 -34 0
-102 -41 0
-102 -52 0
-102 -89 0
-102 98 0
-102 72 0
-102 -92 0
-102 -65 0
-102 78 0
-102 20 0
-102 -7 0
102 41 52 89 -98 -72 92 65 -78 -20 7 0
-103 33 0
-103 45 0
-103 67 0
-103 2 0
-103 80 0
-103 14 0
-103 -38 0
-103 -84 0
-103 -83 0
-103 55 0
103 -33 -45 -67 -2 -80 -14 38 84 83 -55 0
-104 50 0
-104 37 0
-104 -93 0
-104 79 0
-104 84 0
-104 48 0
-104 100 0
-104 -60 0
-104 45 0
-104 42 0
104 -50 -37 93 -79 -84 -48 -100 60 -45 -42 0
-105 34 0
-105 -73 0
-105 -42 0
-105 24 0
-105 -28 0
-105 45 0
-105 88 0
-105 67 0
-105 -37 0
-105 -89 0
105 -34 73 42 -24 28 -45 -88 -67 37 89 0
-106 60 0
-106 23 0
-106 -59 0
-106 85 0
-106 -96 0
-106 -71 0
-106 -93 0
-106 -3 0
-106 -44 0
-106 39 0
106 -60 -23 59 -85 96 71 93 3 44 -39 0
-107 75 0
-107 42 0
-107 61 0
-107 78 0
-107 -9 0
-107 56 0
-107 93 0
-107 -23 0
-107 -24 0
-107 -28 0
107 -75 -42 -61 -78 9 -56 -93 23 24 28 0
-108 80 0
-108 84 0
-108 -98 0
-108 -4 0
-108 -24 0
-108 25 0
-108 1 0
-108 92 0
-108 86 0
-108 69 0
108 -80 -84 98 4 24 -25 -1 -92 -86 -69 0
-109 21 0
-109 -16 0
-109 25 0
-109 -93 0
-109 65 0
-109 5 0
-109 14 0
-109 -23 0
-109 41 0
-109 -9 0
109 -21 16 -25 93 -65 -5 -14 23 -41 9 0
-110 54 0
-110 -40 0
-110 86 0
-110 -82 0
-110 73 0
-110 -89 0
-110 44 0
-110 -94 0
-110 -79 0
-110 -69 0
110 -54 40 -86 82 -73 89 -44 94 79 69 0
101 102 103 104 105 106 107 108 109 110 0
-111 17 0
-111 63 0
-111 -6 0
-111 -33 0
-111 64 0
-111 29 0
-111 12 0
-111 -82 0
-111 4 0
-111 55 0
111 -17 -63 6 33 -64 -29 -12 82 -4 -55 0
-112 85 0
-112 -40 0
-112 -19 0
-112 -14 0
-112 46 0
-112 89 0
-112 -95 0
-112 51 0
-112 -50 0
-112 -73 0
112 -85 40 19 14 -46 -89 95 -51 50 73 0
-113 2 0
-113 -66 0
-113 87 0
-113 -20 0
-113 78 0
-113 44 0
-113 16 0
-113 -14 0
-113 -10 0
-113 69 0
113 -2 66 -87 20 -78 -44 -16 14 10 -69 0
-114 81 0
-114 17 0
-114 11 0
-114 -54 0
-114 -100 0
-114 -82 0
-114 48 0
-114 -16 0
-114 25 0
-114 -8 0
114 -81 -17 -11 54 100 82 -48 16 -25 8 0
-115 17 0
-115 -99 0
-115 63 0
-115 -11 0
-115 15 0
-115 12 0
-115 -57 0
-115 25 0
-115 98 0
-115 58 0
115 -17 99 -63 11 -15 -12 57 -25 -98 -58 0
-116 29 0
-116 56 0
-116 65 0
-116 -60 0
-116 -48 0
-116 21 0
-116 57 0
-116 8 0
-116 12 0
-116 26 0
116 -29 -56 -65 60 48 -21 -57 -8 -12 -26 0
-117 54 0
-117 -41 0
-117 -64 0
-117 81 0
-117 -48 0
-117 90 0
-117 -66 0
-117 98 0
-117 -46 0
-117 -4 0
117 -54 41 64 -81 48 -90 66 -98 46 4 0
-118 96 0
-118 52 0
-118 -62 0
-118 35 0
-118 -50 0
-118 16 0
-118 -30 0
-118 -49 0
-118 53 0
-118 64 0
118 -96 -52 62 -35 50 -16 30 49 -53 -64 0
-119 60 0
-119 25 0
-119 -91 0
-119 37 0
-119 -83 0
-119 45 0
-119 -63 0
-119 -61 0
-119 -55 0
-119 36 0
119 -60 -25 91 -37 83 -45 63 61 55 -36 0
-120 29 0
-120 37 0
-120 -60 0
-120 -20 0
-120 56 0
-120 -11 0
-120 43 0
-120 -45 0
-120 -2 0
-120 -48 0
120 -29 -37 60 20 -56 11 -43 45 2 48 0
111 112 113 114 115 116 117 118 119 120 0
-121 74 0
-121 -3 0
-121 -13 0
-121 1 0
-121 -96 0
-121 29 0
-121 10 0
-121 -58 0
-121 86 0
-121 98 0
121 -74 3 13 -1 96 -29 -10 58 -86 -98 0
-122 70 0
-122 -92 0
-122 -44 0
-122 -57 0
-122 93 0
-122 -8 0
-122 -2 0
-122 -50 0
-122 21 0
-122 -16 0
122 -70 92 44 57 -93 8 2 50 -21 16 0
-123 24 0
-123 -30 0
-123 77 0
-123 -12 0
-123 -1 0
-123 20 0
-123 -28 0
-123 91 0
-123 8 0
-123 99 0
123 -24 30 -77 12 1 -20 28 -91 -8 -99 0
-124 26 0
-124 -75 0
-124 42 0
-124 21 0
-124 69 0
-124 32 0
-124 -64 0
-124 -93 0
-124 -1 0
-124 -8 0
124 -26 75 -42 -21 -69 -32 64 93 1 8 0
-125 71 0
-125 -61 0
-125 -76 0
-125 -38 0
-125 42 0
-125 28 0
-125 -18 0
-125 -54 0
-125 77 0
-125 13 0
125 -71 61 76 38 -42 -28 18 54 -77 -13 0
-126 -38 0
-126 6 0
-126 -45 0
-126 -50 0
-126 -74 0
-126 -75 0
-126 -97 0
-126 9 0
-126 83 0
-126 24 0
126 38 -6 45 50 74 75 97 -9 -83 -24 0
-127 -59 0
-127 10 0
-127 74 0
-127 -61 0
-127 -72 0
-127 6 0
-127 -55 0
-127 41 0
-127 -39 0
-127 89 0
127 59 -10 -74 61 72 -6 55 -41 39 -89 0
-128 49 0
-128 -13 0
-128 -54 0
-128 -4 0
-128 -63 0
-128 2 0
-128 -31 0
-128 -16 0
-128 21 0
-128 -97 0
128 -49 13 54 4 63 -2 31 16 -21 97 0
-129 -63 0
-129 -4 0
-129 44 0
-129 86 0
-129 22 0
-129 30 0
-129 41 0
-129 -76 0
-129 -17 0
-129 -99 0
129 63 4 -44 -86 -22 -30 -41 76 17 99 0
-130 46 0
-130 99 0
-130 -97 0
-130 1 0
-130 -35 0
-130 70 0
-130 -34 0
-130 48 0
-130 -14 0
-130 -5 0
130 -46 -99 97 -1 35 -70 34 -48 14 5 0
121 122 123 124 125 126 127 128 129 130 0
-131 -12 0
-131 19 0
-131 -46 0
-131 -62 0
-131 43 0
-131 34 0
-131 42 0
-131 44 0
-131 -56 0
-131 10 0
131 12 -19 46 62 -43 -34 -42 -44 56 -10 0
-132 -54 0
-132 -34 0
-132 -15 0
-132 -84 0
-132 52 0
-132 -75 0
-132 -65 0
-132 68 0
-132 36 0
-132 -71 0
132 54 34 15 84 -52 75 65 -68 -36 71 0
-133 64 0
-133 34 0
-133 -68 0
-133 54 0
-133 43 0
-133 4 0
-133 92 0
-133 -9 0
-133 -86 0
-133 -6 0
133 -64 -34 68 -54 -43 -4 -92 9 86 6 0
-134 73 0
-134 -95 0
-134 -10 0
-134 -61 0
-134 62 0
-134 -22 0
-134 82 0
-134 72 0
-134 86 0
-134 25 0
134 -73 95 10 61 -62 22 -82 -72 -86 -25 0
-135 59 0
-135 -42 0
-135 99 0
-135 1 0
-135 -24 0
-135 37 0
-135 -14 0
-135 -100 0
-135 -6 0
-135 -55 0
135 -59 42 -99 -1 24 -37 14 100 6 55 0
-136 -16 0
-136 6 0
-136 -17 0
-136 -36 0
-136 -14 0
-136 20 0
-136 28 0
-136 -58 0
-136 81 0
-136 75 0
136 16 -6 17 36 14 -20 -28 58 -81 -75 0
-137 -33 0
-137 -83 0
-137 -46 0
-137 -9 0
-137 42 0
-137 -86 0
-137 -98 0
-137 48 0
-137 13 0
-137 26 0
137 33 83 46 9 -42 86 98 -48 -13 -26 0
-138 -43 0
-138 41 0
-138 72 0
-138 61 0
-138 45 0
-138 65 0
-138 96 0
-138 -70 0
-138 -9 0
-138 -23 0
138 43 -41 -72 -61 -45 -65 -96 70 9 23 0
-139 -74 0
-139 19 0
-139 57 0
-139 -16 0
-139 49 0
-139 -27 0
-139 1 0
-139 92 0
-139 45 0
-139 -87 0
139 74 -19 -57 16 -49 27 -1 -92 -45 87 0
-140 -87 0
-140 -15 0
-140 79 0
-140 -57 0
-140 8 0
-140 -25 0
-140 37 0
-140 -64 0
-140 -36 0
-140 1 0
140 87 15 -79 57 -8 25 -37 64 36 -1 0
131 132 133 134 135 136 137 138 139 140 0
-141 55 0
-141 73 0
-141 -60 0
-141 38 0
-141 -17 0
-141 94 0
-141 99 0
-141 -72 0
-141 51 0
-141 69 0
141 -55 -73 60 -38 17 -94 -99 72 -51 -69 0
-142 -28 0
-142 -29 0
-142 2 0
-142 19 0
-142 55 0
-142 15 0
-142 70 0
-142 -92 0
-142 -5 0
-142 45 0
142 28 29 -2 -19 -55 -15 -70 92 5 -45 0
-143 56 0
-143 1 0
-143 69 0
-143 78 0
-143 31 0
-143 -83 0
-143 -77 0
-143 -90 0
-143 -67 0
-143 41 0
143 -56 -1 -69 -78 -31 83 77 90 67 -41 0
-144 -29 0
-144 -77 0
-144 73 0
-144 41 0
-144 -39 0
-144 -85 0
-144 76 0
-144 -70 0
-144 71 0
-144 -47 0
144 29 77 -73 -41 39 85 -76 70 -71 47 0
-145 -37 0
-145 67 0
-145 97 0
-145 90 0
-145 -56 0
-145 -30 0
-145 -73 0
-145 42 0
-145 47 0
-145 -58 0
145 37 -67 -97 -90 56 30 73 -42 -47 58 0
-146 -86 0
-146 -30 0
-146 -85 0
-146 46 0
-146 79 0
-146 -87 0
-146 17 0
-146 -98 0
-146 62 0
-146 70 0
146 86 30 85 -46 -79 87 -17 98 -62 -70 0
-147 54 0
-147 64 0
-147 -49 0
-147 -73 0
-147 50 0
-147 41 0
-147 44 0
-147 97 0
-147 -67 0
-147 59 0
147 -54 -64 49 73 -50 -41 -44 -97 67 -59 0
-148 48 0
-148 57 0
-148 -62 0
-148 -5 0
-148 -59 0
-148 1 0
-148 60 0
-148 54 0
-148 -93 0
-148 75 0
148 -48 -57 62 5 59 -1 -60 -54 93 -75 0
-149 -4 0
-149 -56 0
-149 -31 0
-149 22 0
-149 26 0
-149 38 0
-149 95 0
-149 -5 0
-149 -34 0
-149 -6 0
149 4 56 31 -22 -26 -38 -95 5 34 6 0
-150 1 0
-150 36 0
-150 21 0
-150 -56 0
-150 7 0
-150 -35 0
-150 -89 0
-150 8 0
-150 -86 0
-150 -12 0
150 -1 -36 -21 56 -7 35 89 -8 86 12 0
141 142 143 144 145 146 147 148 149 150 0
-151 -22 0
-151 -61 0
-151 -1 0
-151 90 0
-151 27 0
-151 84 0
-151 -49 0
-151 38 0
-151 -77 0
-151 78 0
151 22 61 1 -90 -27 -84 49 -38 77 -78 0
-152 -90 0
-152 -29 0
-152 -89 0
-152 -37 0
-152 53 0
-152 82 0
-152 -66 0
-152 -77 0
-152 24 0
-152 42 0
152 90 29 89 37 -53 -82 66 77 -24 -42 0
-153 -48 0
-153 -60 0
-153 -7 0
-153 -13 0
-153 79 0
-153 -12 0
-153 40 0
-153 -55 0
-153 27 0
-153 -16 0
153 48 60 7 13 -79 12 -40 55 -27 16 0
-154 -52 0
-154 48 0
-154 29 0
-154 -82 0
-154 -7 0
-154 79 0
-154 -21 0
-154 34 0
-154 51 0
-154 -75 0
154 52 -48 -29 82 7 -79 21 -34 -51 75 0
-155 -14 0
-155 21 0
-155 -41 0
-155 68 0
-155 61 0
-155 -19 0
-155 58 0
-155 83 0
-155 -89 0
-155 49 0
155 14 -21 41 -68 -61 19 -58 -83 89 -49 0
-156 -2 0
-156 1 0
-156 -87 0
-156 86 0
-156 24 0
-156 -100 0
-156 -43 0
-156 -30 0
-156 75 0
-156 -37 0
156 2 -1 87 -86 -24 100 43 30 -75 37 0
-157 88 0
-157 98 0
-157 -95 0
-157 -10 0
-157 76 0
-157 -32 0
-157 -61 0
-157 -25 0
-157 14 0
-157 77 0
157 -88 -98 95 10 -76 32 61 25 -14 -77 0
-158 54 0
-158 91 0
-158 45 0
-158 81 0
-158 -89 0
-158 -38 0
-158 55 0
-158 -52 0
-158 -47 0
-158 34 0
158 -54 -91 -45 -81 89 38 -55 52 47 -34 0
-159 51 0
-159 33 0
-159 -77 0
-159 23 0
-159 57 0
-159 69 0
-159 -54 0
-159 -24 0
-159 -53 0
-159 47 0
159 -51 -33 77 -23 -57 -69 54 24 53 -47 0
-160 4 0
-160 13 0
-160 -57 0
-160 -71 0
-160 -74 0
-160 -30 0
-160 -86 0
-160 -18 0
-160 53 0
-160 26 0
160 -4 -13 57 71 74 30 86 18 -53 -26 0
151 152 153 154 155 156 157 158 159 160 0
-161 -62 0
-161 -87 0
-161 69 0
-161 -12 0
-161 -6 0
-161 80 0
-161 -7 0
-161 76 0
-161 -92 0
-161 -90 0
161 62 87 -69 12 6 -80 7 -76 92 90 0
-162 -60 0
-162 -74 0
-162 -49 0
-162 -83 0
-162 11 0
-162 43 0
-162 -1 0
-162 -13 0
-162 -15 0
-162 -21 0
162 60 74 49 83 -11 -43 1 13 15 21 0
-163 71 0
-163 -11 0
-163 -8 0
-163 -42 0
-163 85 0
-163 -48 0
-163 -75 0
-163 30 0
-163 38 0
-163 -82 0
163 -71 11 8 42 -85 48 75 -30 -38 82 0
-164 -25 0
-164 45 0
-164 -90 0
-164 60 0
-164 4 0
-164 -62 0
-164 69 0
-164 15 0
-164 -48 0
-164 61 0
164 25 -45 90 -60 -4 62 -69 -15 48 -61 0
-165 24 0
-165 -12 0
-165 -39 0
-165 62 0
-165 -41 0
-165 36 0
-165 -97 0
-165 43 0
-165 -18 0
-165 90 0
165 -24 12 39 -62 41 -36 97 -43 18 -90 0
-166 56 0
-166 -24 0
-166 14 0
-166 -76 0
-166 85 0
-166 62 0
-166 -79 0
-166 -30 0
-166 -68 0
-166 47 0
166 -56 24 -14 76 -85 -62 79 30 68 -47 0
-167 -82 0
-167 33 0
-167 -67 0
-167 -16 0
-167 -17 0
-167 13 0
-167 24 0
-167 99 0
-167 92 0
-167 87 0
167 82 -33 67 16 17 -13 -24 -99 -92 -87 0
-168 85 0
-168 -96 0
-168 -70 0
-168 -54 0
-168 27 0
-168 36 0
-168 100 0
-168 25 0
-168 76 0
-168 20 0
168 -85 96 70 54 -27 -36 -100 -25 -76 -20 0
-169 75 0
-169 -19 0
-169 -74 0
-169 98 0
-169 45 0
-169 -6 0
-169 -55 0
-169 -64 0
-169 47 0
-169 -68 0
169 -75 19 74 -98 -45 6 55 64 -47 68 0
-170 99 0
-170 78 0
-170 -53 0
-170 -76 0
-170 -91 0
-170 -80 0
-170 -83 0
-170 82 0
-170 -24 0
-170 58 0
170 -99 -78 53 76 91 80 83 -82 24 -58 0
161 162 163 164 165 166 167 168 169 170 0
-171 51 0
-171 23 0
-171 -42 0
-171 -65 0
-171 -8 0
-171 25 0
-171 21 0
-171 38 0
-171 -88 0
-171 -32 0
171 -51 -23 42 65 8 -25 -21 -38 88 32 0
-172 -14 0
-172 -47 0
-172 -6 0
-172 64 0
-172 -73 0
-172 10 0
-172 28 0
-172 -19 0
-172 -37 0
-172 35 0
172 14 47 6 -64 73 -10 -28 19 37 -35 0
-173 79 0
-173 -36 0
-173 -86 0
-173 -72 0
-173 82 0
-173 2 0
-173 -69 0
-173 35 0
-173 -59 0
-173 -33 0
173 -79 36 86 72 -82 -2 69 -35 59 33 0
-174 46 0
-174 -54 0
-174 24 0
-174 -15 0
-174 53 0
-174 93 0
-174 31 0
-174 -5 0
-174 -67 0
-174 -11 0
174 -46 54 -24 15 -53 -93 -31 5 67 11 0
-175 -5 0
-175 -53 0
-175 -57 0
-175 61 0
-175 -54 0
-175 -78 0
-175 70 0
-175 -29 0
-175 15 0
-175 -95 0
175 5 53 57 -61 54 78 -70 29 -15 95 0
-176 55 0
-176 -40 0
-176 -66 0
-176 74 0
-176 -65 0
-176 88 0
-176 49 0
-176 98 0
-176 51 0
-176 -50 0
176 -55 40 66 -74 65 -88 -49 -98 -51 50 0
-177 -75 0
-177 81 0
-177 27 0
-177 72 0
-177 -40 0
-177 -51 0
-177 29 0
-177 83 0
-177 -85 0
-177 -93 0
177 75 -81 -27 -72 40 51 -29 -83 85 93 0
-178 31 0
-178 2 0
-178 93 0
-178 -50 0
-178 9 0
-178 17 0
-178 81 0
-178 -80 0
-178 -39 0
-178 -63 0
178 -31 -2 -93 50 -9 -17 -81 80 39 63 0
-179 -80 0
-179 67 0
-179 -66 0
-179 -91 0
-179 -75 0
-179 84 0
-179 58 0
-179 34 0
-179 -82 0
-179 79 0
179 80 -67 66 91 75 -84 -58 -34 82 -79 0
-180 54 0
-180 -87 0
-180 -41 0
-180 -42 0
-180 13 0
-180 45 0
-180 -8 0
-180 79 0
-180 -86 0
-180 64 0
180 -54 87 41 42 -13 -45 8 -79 86 -64 0
171 172 173 174 175 176 177 178 179 180 0
-181 21 0
-181 30 0
-181 67 0
-181 92 0
-181 35 0
-181 15 0
-181 -66 0
-181 39 0
-181 19 0
-181 22 0
181 -21 -30 -67 -92 -35 -15 66 -39 -19 -22 0
-182 98 0
-182 -27 0
-182 90 0
-182 92 0
-182 -58 0
-182 -77 0
-182 -7 0
-182 21 0
-182 -30 0
-182 46 0
182 -98 27 -90 -92 58 77 7 -21 30 -46 0
-183 -48 0
-183 11 0
-183 -70 0
-183 49 0
-183 18 0
-183 76 0
-183 17 0
-183 -91 0
-183 1 0
-183 63 0
183 48 -11 70 -49 -18 -76 -17 91 -1 -63 0
-184 47 0
-184 9 0
-184 26 0
-184 -87 0
-184 -94 0
-184 58 0
-184 -90 0
-184 -17 0
-184 37 0
-184 54 0
184 -47 -9 -26 87 94 -58 90 17 -37 -54 0
-185 65 0
-185 -86 0
-185 28 0
-185 -31 0
-185 -76 0
-185 -74 0
-185 -69 0
-185 92 0
-185 -45 0
-185 -10 0
185 -65 86 -28 31 76 74 69 -92 45 10 0
-186 51 0
-186 -16 0
-186 -63 0
-186 46 0
-186 22 0
-186 -79 0
-186 -34 0
-186 43 0
-186 -53 0
-186 -77 0
186 -51 16 63 -46 -22 79 34 -43 53 77 0
-187 -43 0
-187 42 0
-187 51 0
-187 92 0
-187 41 0
-187 67 0
-187 -22 0
-187 -93 0
-187 9 0
-187 -23 0
187 43 -42 -51 -92 -41 -67 22 93 -9 23 0
-188 10 0
-188 67 0
-188 98 0
-188 -65 0
-188 -50 0
-188 38 0
-188 53 0
-188 -100 0
-188 93 0
-188 -81 0
188 -10 -67 -98 65 50 -38 -53 100 -93 81 0
-189 -94 0
-189 22 0
-189 -86 0
-189 81 0
-189 73 0
-189 26 0
-189 96 0
-189 55 0
-189 -37 0
-189 -59 0
189 94 -22 86 -81 -73 -26 -96 -55 37 59 0
-190 54 0
-190 65 0
-190 7 0
-190 -70 0
-190 -27 0
-190 36 0
-190 68 0
-190 79 0
-190 -19 0
-190 51 0
190 -54 -65 -7 70 27 -36 -68 -79 19 -51 0
181 182 183 184 185 186 187 188 189 190 0
-191 -97 0
-191 95 0
-191 77 0
-191 -61 0
-191 12 0
-191 38 0
-191 -14 0
-191 -36 0
-191 -94 0
-191 -90 0
191 97 -95 -77 61 -12 -38 14 36 94 90 0
-192 70 0
-192 66 0
-192 -25 0
-192 -64 0
-192 41 0
-192 76 0
-192 -84 0
-192 9 0
-192 -61 0
-192 -37 0
192 -70 -66 25 64 -41 -76 84 -9 61 37 0
-193 95 0
-193 24 0
-193 -41 0
-193 -40 0
-193 -38 0
-193 -59 0
-193 33 0
-193 96 0
-193 -22 0
-193 -97 0
193 -95 -24 41 40 38 59 -33 -96 22 97 0
-194 12 0
-194 -90 0
-194 -10 0
-194 -92 0
-194 69 0
-194 49 0
-194 -95 0
-194 -84 0
-194 98 0
-194 -73 0
194 -12 90 10 92 -69 -49 95 84 -98 73 0
-195 40 0
-195 -26 0
-195 -95 0
-195 21 0
-195 -2 0
-195 -57 0
-195 -90 0
-195 -93 0
-195 -69 0
-195 -88 0
195 -40 26 95 -21 2 57 90 93 69 88 0
-196 -33 0
-196 16 0
-196 32 0
-196 18 0
-196 -51 0
-196 -98 0
-196 -40 0
-196 4 0
-196 79 0
-196 66 0
196 33 -16 -32 -18 51 98 40 -4 -79 -66 0
-197 17 0
-197 -42 0
-197 -64 0
-197 76 0
-197 23 0
-197 -46 0
-197 -81 0
-197 40 0
-197 70 0
-197 78 0
197 -17 42 64 -76 -23 46 81 -40 -70 -78 0
-198 -62 0
-198 65 0
-198 17 0
-198 69 0
-198 64 0
-198 70 0
-198 -75 0
-198 -7 0
-198 26 0
-198 -80 0
198 62 -65 -17 -69 -64 -70 75 7 -26 80 0
-199 -4 0
-199 56 0
-199 -54 0
-199 -85 0
-199 -44 0
-199 16 0
-199 -67 0
-199 50 0
-199 -53 0
-199 -34 0
199 4 -56 54 85 44 -16 67 -50 53 34 0
-200 77 0
-200 66 0
-200 -99 0
-200 3 0
-200 18 0
-200 92 0
-200 98 0
-200 -15 0
-200 -94 0
-200 -72 0
200 -77 -66 99 -3 -18 -92 -98 15 94 72 0
191 192 193 194 195 196 197 198 199 200 0
